Route 1: 0 56 44 80 7 52 73 0
Route 2: 0 39 29 94 37 81 38 26 78 65 21 0
Route 3: 0 2 34 59 11 91 27 13 63 84 5 23 0
Route 4: 0 40 87 50 10 32 77 41 25 43 17 54 0
Route 5: 0 88 58 20 22 28 19 0
Route 6: 0 57 68 53 67 61 92 82 16 14 0
Route 7: 0 96 30 79 66 24 18 15 95 35 76 90 0
Route 8: 0 99 83 75 100 45 8 49 0
Route 9: 0 3 33 93 72 71 85 69 36 9 4 0
Route 10: 0 12 97 89 55 6 86 60 1 42 0
Route 11: 0 46 98 74 64 48 70 31 62 51 0
Route 12: 0 47 0
